p cnf 30 310
1 2 3 0
4 5 6 0
7 8 9 0
10 11 12 0
13 14 15 0
16 17 18 0
19 20 21 0
22 23 24 0
25 26 27 0
28 29 30 0
-1 -2 0
-1 -3 0
-2 -3 0
-4 -5 0
-4 -6 0
-5 -6 0
-7 -8 0
-7 -9 0
-8 -9 0
-10 -11 0
-10 -12 0
-11 -12 0
-13 -14 0
-13 -15 0
-14 -15 0
-16 -17 0
-16 -18 0
-17 -18 0
-19 -20 0
-19 -21 0
-20 -21 0
-22 -23 0
-22 -24 0
-23 -24 0
-25 -26 0
-25 -27 0
-26 -27 0
-28 -29 0
-28 -30 0
-29 -30 0
-1 5 6 0
-2 4 6 0
-3 4 5 0
-1 7 8 9 0
-2 7 8 9 0
-3 7 8 9 0
-1 10 11 12 0
-2 10 11 12 0
-3 10 11 12 0
-1 14 15 0
-2 13 15 0
-3 13 14 0
-1 17 18 0
-2 16 18 0
-3 16 17 0
-1 19 20 21 0
-2 19 20 21 0
-3 19 20 21 0
-1 22 23 24 0
-2 22 23 24 0
-3 22 23 24 0
-1 25 26 27 0
-2 25 26 27 0
-3 25 26 27 0
-1 29 30 0
-2 28 30 0
-3 28 29 0
-4 2 3 0
-5 1 3 0
-6 1 2 0
-4 7 8 9 0
-5 7 8 9 0
-6 7 8 9 0
-4 10 11 12 0
-5 10 11 12 0
-6 10 11 12 0
-4 13 14 15 0
-5 13 14 15 0
-6 13 14 15 0
-4 17 18 0
-5 16 18 0
-6 16 17 0
-4 19 20 21 0
-5 19 20 21 0
-6 19 20 21 0
-4 22 23 24 0
-5 22 23 24 0
-6 22 23 24 0
-4 25 26 27 0
-5 25 26 27 0
-6 25 26 27 0
-4 28 29 30 0
-5 28 29 30 0
-6 28 29 30 0
-7 1 2 3 0
-8 1 2 3 0
-9 1 2 3 0
-7 4 5 6 0
-8 4 5 6 0
-9 4 5 6 0
-7 10 11 12 0
-8 10 11 12 0
-9 10 11 12 0
-7 13 14 15 0
-8 13 14 15 0
-9 13 14 15 0
-7 16 17 18 0
-8 16 17 18 0
-9 16 17 18 0
-7 20 21 0
-8 19 21 0
-9 19 20 0
-7 23 24 0
-8 22 24 0
-9 22 23 0
-7 26 27 0
-8 25 27 0
-9 25 26 0
-7 29 30 0
-8 28 30 0
-9 28 29 0
-10 1 2 3 0
-11 1 2 3 0
-12 1 2 3 0
-10 4 5 6 0
-11 4 5 6 0
-12 4 5 6 0
-10 7 8 9 0
-11 7 8 9 0
-12 7 8 9 0
-10 14 15 0
-11 13 15 0
-12 13 14 0
-10 17 18 0
-11 16 18 0
-12 16 17 0
-10 20 21 0
-11 19 21 0
-12 19 20 0
-10 23 24 0
-11 22 24 0
-12 22 23 0
-10 25 26 27 0
-11 25 26 27 0
-12 25 26 27 0
-10 28 29 30 0
-11 28 29 30 0
-12 28 29 30 0
-13 2 3 0
-14 1 3 0
-15 1 2 0
-13 4 5 6 0
-14 4 5 6 0
-15 4 5 6 0
-13 7 8 9 0
-14 7 8 9 0
-15 7 8 9 0
-13 11 12 0
-14 10 12 0
-15 10 11 0
-13 17 18 0
-14 16 18 0
-15 16 17 0
-13 19 20 21 0
-14 19 20 21 0
-15 19 20 21 0
-13 23 24 0
-14 22 24 0
-15 22 23 0
-13 26 27 0
-14 25 27 0
-15 25 26 0
-13 28 29 30 0
-14 28 29 30 0
-15 28 29 30 0
-16 2 3 0
-17 1 3 0
-18 1 2 0
-16 5 6 0
-17 4 6 0
-18 4 5 0
-16 7 8 9 0
-17 7 8 9 0
-18 7 8 9 0
-16 11 12 0
-17 10 12 0
-18 10 11 0
-16 14 15 0
-17 13 15 0
-18 13 14 0
-16 20 21 0
-17 19 21 0
-18 19 20 0
-16 22 23 24 0
-17 22 23 24 0
-18 22 23 24 0
-16 25 26 27 0
-17 25 26 27 0
-18 25 26 27 0
-16 29 30 0
-17 28 30 0
-18 28 29 0
-19 1 2 3 0
-20 1 2 3 0
-21 1 2 3 0
-19 4 5 6 0
-20 4 5 6 0
-21 4 5 6 0
-19 8 9 0
-20 7 9 0
-21 7 8 0
-19 11 12 0
-20 10 12 0
-21 10 11 0
-19 13 14 15 0
-20 13 14 15 0
-21 13 14 15 0
-19 17 18 0
-20 16 18 0
-21 16 17 0
-19 23 24 0
-20 22 24 0
-21 22 23 0
-19 26 27 0
-20 25 27 0
-21 25 26 0
-19 28 29 30 0
-20 28 29 30 0
-21 28 29 30 0
-22 1 2 3 0
-23 1 2 3 0
-24 1 2 3 0
-22 4 5 6 0
-23 4 5 6 0
-24 4 5 6 0
-22 8 9 0
-23 7 9 0
-24 7 8 0
-22 11 12 0
-23 10 12 0
-24 10 11 0
-22 14 15 0
-23 13 15 0
-24 13 14 0
-22 16 17 18 0
-23 16 17 18 0
-24 16 17 18 0
-22 20 21 0
-23 19 21 0
-24 19 20 0
-22 25 26 27 0
-23 25 26 27 0
-24 25 26 27 0
-22 29 30 0
-23 28 30 0
-24 28 29 0
-25 1 2 3 0
-26 1 2 3 0
-27 1 2 3 0
-25 4 5 6 0
-26 4 5 6 0
-27 4 5 6 0
-25 8 9 0
-26 7 9 0
-27 7 8 0
-25 10 11 12 0
-26 10 11 12 0
-27 10 11 12 0
-25 14 15 0
-26 13 15 0
-27 13 14 0
-25 16 17 18 0
-26 16 17 18 0
-27 16 17 18 0
-25 20 21 0
-26 19 21 0
-27 19 20 0
-25 22 23 24 0
-26 22 23 24 0
-27 22 23 24 0
-25 29 30 0
-26 28 30 0
-27 28 29 0
-28 2 3 0
-29 1 3 0
-30 1 2 0
-28 4 5 6 0
-29 4 5 6 0
-30 4 5 6 0
-28 8 9 0
-29 7 9 0
-30 7 8 0
-28 10 11 12 0
-29 10 11 12 0
-30 10 11 12 0
-28 13 14 15 0
-29 13 14 15 0
-30 13 14 15 0
-28 17 18 0
-29 16 18 0
-30 16 17 0
-28 19 20 21 0
-29 19 20 21 0
-30 19 20 21 0
-28 23 24 0
-29 22 24 0
-30 22 23 0
-28 26 27 0
-29 25 27 0
-30 25 26 0
